NAME : 100-10-2-i.30641.tour
COMMENT : Length = 30641
COMMENT : Found by LKH-3 [Keld Helsgaun] Tue Dec 17 14:07:00 2024
TYPE : TOUR
DIMENSION : 120
TOUR_SECTION
1
111
2
98
74
67
65
38
52
35
14
63
106
81
85
102
62
108
76
94
75
83
104
93
110
91
78
79
72
87
68
69
84
101
64
90
86
103
97
89
96
95
100
105
88
99
61
77
71
107
109
66
92
70
80
82
73
112
3
113
4
114
5
115
6
116
7
60
22
20
37
18
19
53
32
31
54
46
34
49
44
42
23
17
30
36
59
57
48
13
12
40
26
24
50
41
56
58
16
29
21
25
47
15
39
55
43
27
33
45
51
11
28
117
8
118
9
119
10
120
-1
EOF
